[VALIDATOR STDOUT]
Checking plan: /home/fjl2401/Safety-gen/benchmark_problems/grippers/optic_results/grippers-n1-r7-o5-s5002.plan
Plan executed successfully - checking goal
Goal not satisfied
Plan invalid


Failed plans:
 /home/fjl2401/Safety-gen/benchmark_problems/grippers/optic_results/grippers-n1-r7-o5-s5002.plan
